NAME: tsp_326
COMMENT: Random TSP instance
TYPE: TSP
DIMENSION: 50
EDGE_WEIGHT_TYPE: EUC_2D
NODE_COORD_SECTION
1 827 445
2 178 168
3 889 822
4 629 560
5 852 219
6 959 1000
7 394 190
8 915 865
9 25 465
10 724 383
11 150 664
12 131 64
13 486 107
14 585 515
15 27 213
16 355 669
17 893 981
18 465 562
19 986 746
20 980 793
21 675 847
22 120 174
23 160 885
24 728 204
25 872 76
26 68 397
27 732 987
28 447 942
29 253 653
30 834 962
31 522 597
32 355 672
33 25 148
34 156 445
35 36 304
36 655 904
37 115 439
38 253 306
39 5 998
40 596 272
41 682 361
42 629 471
43 751 952
44 411 79
45 298 583
46 409 649
47 259 496
48 156 997
49 149 532
50 265 166
